; benchmark generated from python API
(set-info :status unknown)
(declare-fun syscall_stub_newfstatat_83_64 () (_ BitVec 64))
(declare-fun mem_c0000f45_79_992 () (_ BitVec 992))
(declare-fun mem_c0001010_98_32 () (_ BitVec 32))
(declare-fun mem_0_106_8 () (_ BitVec 8))
(declare-fun mem_1_207_128 () (_ BitVec 128))
(assert
 (let ((?x47 ((_ extract 31 0) syscall_stub_newfstatat_83_64)))
 (let (($x52 (bvule ?x47 (_ bv4294963200 32))))
 (not $x52))))
(assert
 (let ((?x3699 ((_ extract 891 891) mem_c0000f45_79_992)))
 (= (_ bv0 1) ?x3699)))
(assert
 (let ((?x2189 ((_ extract 900 900) mem_c0000f45_79_992)))
 (= (_ bv0 1) ?x2189)))
(assert
 (let ((?x2374 ((_ extract 839 832) mem_c0000f45_79_992)))
 (= (_ bv0 8) ?x2374)))
(assert
 (let ((?x2364 ((_ extract 831 824) mem_c0000f45_79_992)))
 (= (_ bv0 8) ?x2364)))
(assert
 (let ((?x2349 ((_ extract 823 816) mem_c0000f45_79_992)))
 (= (_ bv0 8) ?x2349)))
(assert
 (let ((?x2357 ((_ extract 815 808) mem_c0000f45_79_992)))
 (= (_ bv0 8) ?x2357)))
(assert
 (let ((?x2362 ((_ extract 807 800) mem_c0000f45_79_992)))
 (= (_ bv0 8) ?x2362)))
(assert
 (let ((?x2363 ((_ extract 799 792) mem_c0000f45_79_992)))
 (= (_ bv0 8) ?x2363)))
(assert
 (let ((?x2346 ((_ extract 791 784) mem_c0000f45_79_992)))
 (= (_ bv0 8) ?x2346)))
(assert
 (let ((?x2345 ((_ extract 783 776) mem_c0000f45_79_992)))
 (= (_ bv0 8) ?x2345)))
(assert
 (let ((?x2411 ((_ extract 735 728) mem_c0000f45_79_992)))
 (let (($x7359 (= (_ bv0 8) ?x2411)))
 (let (($x7360 (not $x7359)))
 (let ((?x2410 ((_ extract 743 736) mem_c0000f45_79_992)))
 (let (($x7355 (= (_ bv0 8) ?x2410)))
 (let (($x7358 (not $x7355)))
 (let ((?x2429 ((_ extract 759 752) mem_c0000f45_79_992)))
 (let (($x10082 (= (_ bv0 8) ?x2429)))
 (let (($x10079 (not $x10082)))
 (let ((?x2417 ((_ extract 751 744) mem_c0000f45_79_992)))
 (let (($x10061 (= (_ bv0 8) ?x2417)))
 (let (($x10059 (not $x10061)))
 (let ((?x2419 ((_ extract 767 760) mem_c0000f45_79_992)))
 (let (($x10069 (= (_ bv0 8) ?x2419)))
 (let (($x10067 (not $x10069)))
 (let ((?x2400 ((_ extract 719 712) mem_c0000f45_79_992)))
 (let (($x43496 (= (_ bv0 8) ?x2400)))
 (let (($x60066 (not $x43496)))
 (let ((?x2401 ((_ extract 727 720) mem_c0000f45_79_992)))
 (let (($x43774 (= (_ bv0 8) ?x2401)))
 (let (($x19310 (not $x43774)))
 (let (($x99784 (or $x19310 $x60066 $x10067 $x10059 $x10079 $x7358 $x7360)))
 (let ((?x2427 ((_ extract 775 768) mem_c0000f45_79_992)))
 (let (($x60052 (= (_ bv0 8) ?x2427)))
 (let (($x6659 (not $x60052)))
 (let (($x99783 (or $x6659 $x99784)))
 (let (($x99763 (not $x99783)))
 (let ((?x24975 ((_ extract 719 719) mem_c0000f45_79_992)))
 (let (($x56317 (= (_ bv1 1) ?x24975)))
 (or $x56317 $x99763)))))))))))))))))))))))))))))))
(assert
 (let ((?x2411 ((_ extract 735 728) mem_c0000f45_79_992)))
 (let (($x7359 (= (_ bv0 8) ?x2411)))
 (let (($x7360 (not $x7359)))
 (let ((?x2410 ((_ extract 743 736) mem_c0000f45_79_992)))
 (let (($x7355 (= (_ bv0 8) ?x2410)))
 (let (($x7358 (not $x7355)))
 (let ((?x2429 ((_ extract 759 752) mem_c0000f45_79_992)))
 (let (($x10082 (= (_ bv0 8) ?x2429)))
 (let (($x10079 (not $x10082)))
 (let ((?x2417 ((_ extract 751 744) mem_c0000f45_79_992)))
 (let (($x10061 (= (_ bv0 8) ?x2417)))
 (let (($x10059 (not $x10061)))
 (let ((?x2419 ((_ extract 767 760) mem_c0000f45_79_992)))
 (let (($x10069 (= (_ bv0 8) ?x2419)))
 (let (($x10067 (not $x10069)))
 (let ((?x2400 ((_ extract 719 712) mem_c0000f45_79_992)))
 (let (($x43496 (= (_ bv0 8) ?x2400)))
 (let (($x60066 (not $x43496)))
 (let ((?x2401 ((_ extract 727 720) mem_c0000f45_79_992)))
 (let (($x43774 (= (_ bv0 8) ?x2401)))
 (let (($x19310 (not $x43774)))
 (let (($x99784 (or $x19310 $x60066 $x10067 $x10059 $x10079 $x7358 $x7360)))
 (let ((?x2427 ((_ extract 775 768) mem_c0000f45_79_992)))
 (let (($x99771 (= (_ bv1 8) ?x2427)))
 (let (($x99778 (not $x99771)))
 (let (($x99766 (or $x99778 $x99784)))
 (let (($x99764 (not $x99766)))
 (let ((?x3809 (concat (concat (concat (concat (concat ?x2400 ?x2401) ?x2411) ?x2410) ?x2417) ?x2429)))
 (let ((?x3823 (concat (concat ?x3809 ?x2419) ?x2427)))
 (let ((?x28836 (bvadd (_ bv18446744073709551615 64) ?x3823)))
 (let ((?x13368 ((_ extract 63 63) ?x28836)))
 (let (($x12179 (= (_ bv1 1) ?x13368)))
 (or $x12179 $x99764))))))))))))))))))))))))))))))))))
(assert
 (let ((?x2411 ((_ extract 735 728) mem_c0000f45_79_992)))
 (let (($x7359 (= (_ bv0 8) ?x2411)))
 (let (($x7360 (not $x7359)))
 (let ((?x2410 ((_ extract 743 736) mem_c0000f45_79_992)))
 (let (($x7355 (= (_ bv0 8) ?x2410)))
 (let (($x7358 (not $x7355)))
 (let ((?x2429 ((_ extract 759 752) mem_c0000f45_79_992)))
 (let (($x10082 (= (_ bv0 8) ?x2429)))
 (let (($x10079 (not $x10082)))
 (let ((?x2417 ((_ extract 751 744) mem_c0000f45_79_992)))
 (let (($x10061 (= (_ bv0 8) ?x2417)))
 (let (($x10059 (not $x10061)))
 (let ((?x2419 ((_ extract 767 760) mem_c0000f45_79_992)))
 (let (($x10069 (= (_ bv0 8) ?x2419)))
 (let (($x10067 (not $x10069)))
 (let ((?x2400 ((_ extract 719 712) mem_c0000f45_79_992)))
 (let (($x43496 (= (_ bv0 8) ?x2400)))
 (let (($x60066 (not $x43496)))
 (let ((?x2401 ((_ extract 727 720) mem_c0000f45_79_992)))
 (let (($x43774 (= (_ bv0 8) ?x2401)))
 (let (($x19310 (not $x43774)))
 (let (($x99784 (or $x19310 $x60066 $x10067 $x10059 $x10079 $x7358 $x7360)))
 (let ((?x99834 ((_ extract 775 769) mem_c0000f45_79_992)))
 (let (($x99757 (= (_ bv0 7) ?x99834)))
 (let (($x98187 (not $x99757)))
 (or $x98187 $x99784)))))))))))))))))))))))))))
(assert
 (= (_ bv0 32) mem_c0001010_98_32))
(assert
 (let (($x14321 (= (_ bv10 8) mem_0_106_8)))
 (not $x14321)))
(assert
 (let ((?x2374 ((_ extract 839 832) mem_c0000f45_79_992)))
 (let ((?x2364 ((_ extract 831 824) mem_c0000f45_79_992)))
 (let ((?x2349 ((_ extract 823 816) mem_c0000f45_79_992)))
 (let ((?x2357 ((_ extract 815 808) mem_c0000f45_79_992)))
 (let ((?x2362 ((_ extract 807 800) mem_c0000f45_79_992)))
 (let ((?x2363 ((_ extract 799 792) mem_c0000f45_79_992)))
 (let ((?x593 (concat (concat ((_ extract 783 776) mem_c0000f45_79_992) ((_ extract 791 784) mem_c0000f45_79_992)) ?x2363)))
 (let ((?x4215 (concat (concat (concat (concat ?x593 ?x2362) ?x2357) ?x2349) ?x2364)))
 (let ((?x3812 (concat ?x4215 ?x2374)))
 (let ((?x18391 (bvadd (_ bv1 64) ?x3812)))
 (= (_ bv1 64) ?x18391))))))))))))
(assert
 (let ((?x99830 ((_ extract 7 0) mem_1_207_128)))
 (and (distinct (_ bv10 8) ?x99830) true)))
(assert
 (let ((?x2374 ((_ extract 839 832) mem_c0000f45_79_992)))
 (let ((?x2364 ((_ extract 831 824) mem_c0000f45_79_992)))
 (let ((?x2349 ((_ extract 823 816) mem_c0000f45_79_992)))
 (let ((?x2357 ((_ extract 815 808) mem_c0000f45_79_992)))
 (let ((?x2362 ((_ extract 807 800) mem_c0000f45_79_992)))
 (let ((?x2363 ((_ extract 799 792) mem_c0000f45_79_992)))
 (let ((?x593 (concat (concat ((_ extract 783 776) mem_c0000f45_79_992) ((_ extract 791 784) mem_c0000f45_79_992)) ?x2363)))
 (let ((?x4215 (concat (concat (concat (concat ?x593 ?x2362) ?x2357) ?x2349) ?x2364)))
 (let ((?x3812 (concat ?x4215 ?x2374)))
 (let ((?x461419 (bvadd (_ bv2 64) ?x3812)))
 (let ((?x2398 (concat ((_ extract 7 0) ((_ extract 775 712) mem_c0000f45_79_992)) ((_ extract 15 8) ((_ extract 775 712) mem_c0000f45_79_992)))))
 (let ((?x2383 (concat (concat ?x2398 ((_ extract 23 16) ((_ extract 775 712) mem_c0000f45_79_992))) ((_ extract 31 24) ((_ extract 775 712) mem_c0000f45_79_992)))))
 (let ((?x2393 (concat (concat ?x2383 ((_ extract 39 32) ((_ extract 775 712) mem_c0000f45_79_992))) ((_ extract 47 40) ((_ extract 775 712) mem_c0000f45_79_992)))))
 (let ((?x2385 (concat (concat ?x2393 ((_ extract 55 48) ((_ extract 775 712) mem_c0000f45_79_992))) ((_ extract 63 56) ((_ extract 775 712) mem_c0000f45_79_992)))))
 (let ((?x461378 (bvsub ?x2385 ?x461419)))
 (let (($x1386632 (= (_ bv0 64) ?x461378)))
 (let ((?x1386657 (ite $x1386632 (_ bv1 1) (_ bv0 1))))
 (let ((?x1382412 ((_ extract 63 63) ?x461378)))
 (let ((?x1384182 (bvor ?x1382412 ?x1386657)))
 (and (distinct (_ bv0 1) ?x1384182) true)))))))))))))))))))))
(maximize mem_c0001010_98_32)
(minimize mem_1_207_128)
(maximize mem_0_106_8)
(minimize mem_c0000f45_79_992)
(minimize mem_c0001010_98_32)
(maximize mem_1_207_128)
(minimize syscall_stub_newfstatat_83_64)
(maximize mem_c0000f45_79_992)
(maximize syscall_stub_newfstatat_83_64)
(minimize mem_0_106_8)
(check-sat)
(get-objectives)
